(set-logic QF_LRA)
(declare-fun X0 () Real )
(declare-fun Y0 () Real )
(declare-fun X1 () Real )
(declare-fun Y1 () Real )
(declare-fun X2 () Real )
(declare-fun Y2 () Real )
(declare-fun X3 () Real )
(declare-fun Y3 () Real )
(declare-fun X4 () Real )
(declare-fun Y4 () Real )
(declare-fun X5 () Real )
(declare-fun Y5 () Real )
(declare-fun X6 () Real )
(declare-fun Y6 () Real )
(declare-fun X7 () Real )
(declare-fun Y7 () Real )
(declare-fun X8 () Real )
(declare-fun Y8 () Real )
(declare-fun Z () Real )
(declare-fun k () Real )
(assert (let
(( $goal (>= Z k) ))
(let
((
$phi ( and 
( or ( <= ( + X0 59 ) X1 )  ( <= ( + X1 24 ) X0 )  ( <= ( + Y0 69 ) Y1 )  ( <= ( + Y1 86 ) Y0 )  )
( or ( <= ( + X0 59 ) X2 )  ( <= ( + X2 1 ) X0 )  ( <= ( + Y0 69 ) Y2 )  ( <= ( + Y2 5 ) Y0 )  )
( or ( <= ( + X0 59 ) X3 )  ( <= ( + X3 100 ) X0 )  ( <= ( + Y0 69 ) Y3 )  ( <= ( + Y3 46 ) Y0 )  )
( or ( <= ( + X0 59 ) X4 )  ( <= ( + X4 1 ) X0 )  ( <= ( + Y0 69 ) Y4 )  ( <= ( + Y4 94 ) Y0 )  )
( or ( <= ( + X0 59 ) X5 )  ( <= ( + X5 12 ) X0 )  ( <= ( + Y0 69 ) Y5 )  ( <= ( + Y5 100 ) Y0 )  )
( or ( <= ( + X0 59 ) X6 )  ( <= ( + X6 9 ) X0 )  ( <= ( + Y0 69 ) Y6 )  ( <= ( + Y6 33 ) Y0 )  )
( or ( <= ( + X0 59 ) X7 )  ( <= ( + X7 50 ) X0 )  ( <= ( + Y0 69 ) Y7 )  ( <= ( + Y7 24 ) Y0 )  )
( or ( <= ( + X0 59 ) X8 )  ( <= ( + X8 24 ) X0 )  ( <= ( + Y0 69 ) Y8 )  ( <= ( + Y8 11 ) Y0 )  )
( or ( <= ( + X1 24 ) X2 )  ( <= ( + X2 1 ) X1 )  ( <= ( + Y1 86 ) Y2 )  ( <= ( + Y2 5 ) Y1 )  )
( or ( <= ( + X1 24 ) X3 )  ( <= ( + X3 100 ) X1 )  ( <= ( + Y1 86 ) Y3 )  ( <= ( + Y3 46 ) Y1 )  )
( or ( <= ( + X1 24 ) X4 )  ( <= ( + X4 1 ) X1 )  ( <= ( + Y1 86 ) Y4 )  ( <= ( + Y4 94 ) Y1 )  )
( or ( <= ( + X1 24 ) X5 )  ( <= ( + X5 12 ) X1 )  ( <= ( + Y1 86 ) Y5 )  ( <= ( + Y5 100 ) Y1 )  )
( or ( <= ( + X1 24 ) X6 )  ( <= ( + X6 9 ) X1 )  ( <= ( + Y1 86 ) Y6 )  ( <= ( + Y6 33 ) Y1 )  )
( or ( <= ( + X1 24 ) X7 )  ( <= ( + X7 50 ) X1 )  ( <= ( + Y1 86 ) Y7 )  ( <= ( + Y7 24 ) Y1 )  )
( or ( <= ( + X1 24 ) X8 )  ( <= ( + X8 24 ) X1 )  ( <= ( + Y1 86 ) Y8 )  ( <= ( + Y8 11 ) Y1 )  )
( or ( <= ( + X2 1 ) X3 )  ( <= ( + X3 100 ) X2 )  ( <= ( + Y2 5 ) Y3 )  ( <= ( + Y3 46 ) Y2 )  )
( or ( <= ( + X2 1 ) X4 )  ( <= ( + X4 1 ) X2 )  ( <= ( + Y2 5 ) Y4 )  ( <= ( + Y4 94 ) Y2 )  )
( or ( <= ( + X2 1 ) X5 )  ( <= ( + X5 12 ) X2 )  ( <= ( + Y2 5 ) Y5 )  ( <= ( + Y5 100 ) Y2 )  )
( or ( <= ( + X2 1 ) X6 )  ( <= ( + X6 9 ) X2 )  ( <= ( + Y2 5 ) Y6 )  ( <= ( + Y6 33 ) Y2 )  )
( or ( <= ( + X2 1 ) X7 )  ( <= ( + X7 50 ) X2 )  ( <= ( + Y2 5 ) Y7 )  ( <= ( + Y7 24 ) Y2 )  )
( or ( <= ( + X2 1 ) X8 )  ( <= ( + X8 24 ) X2 )  ( <= ( + Y2 5 ) Y8 )  ( <= ( + Y8 11 ) Y2 )  )
( or ( <= ( + X3 100 ) X4 )  ( <= ( + X4 1 ) X3 )  ( <= ( + Y3 46 ) Y4 )  ( <= ( + Y4 94 ) Y3 )  )
( or ( <= ( + X3 100 ) X5 )  ( <= ( + X5 12 ) X3 )  ( <= ( + Y3 46 ) Y5 )  ( <= ( + Y5 100 ) Y3 )  )
( or ( <= ( + X3 100 ) X6 )  ( <= ( + X6 9 ) X3 )  ( <= ( + Y3 46 ) Y6 )  ( <= ( + Y6 33 ) Y3 )  )
( or ( <= ( + X3 100 ) X7 )  ( <= ( + X7 50 ) X3 )  ( <= ( + Y3 46 ) Y7 )  ( <= ( + Y7 24 ) Y3 )  )
( or ( <= ( + X3 100 ) X8 )  ( <= ( + X8 24 ) X3 )  ( <= ( + Y3 46 ) Y8 )  ( <= ( + Y8 11 ) Y3 )  )
( or ( <= ( + X4 1 ) X5 )  ( <= ( + X5 12 ) X4 )  ( <= ( + Y4 94 ) Y5 )  ( <= ( + Y5 100 ) Y4 )  )
( or ( <= ( + X4 1 ) X6 )  ( <= ( + X6 9 ) X4 )  ( <= ( + Y4 94 ) Y6 )  ( <= ( + Y6 33 ) Y4 )  )
( or ( <= ( + X4 1 ) X7 )  ( <= ( + X7 50 ) X4 )  ( <= ( + Y4 94 ) Y7 )  ( <= ( + Y7 24 ) Y4 )  )
( or ( <= ( + X4 1 ) X8 )  ( <= ( + X8 24 ) X4 )  ( <= ( + Y4 94 ) Y8 )  ( <= ( + Y8 11 ) Y4 )  )
( or ( <= ( + X5 12 ) X6 )  ( <= ( + X6 9 ) X5 )  ( <= ( + Y5 100 ) Y6 )  ( <= ( + Y6 33 ) Y5 )  )
( or ( <= ( + X5 12 ) X7 )  ( <= ( + X7 50 ) X5 )  ( <= ( + Y5 100 ) Y7 )  ( <= ( + Y7 24 ) Y5 )  )
( or ( <= ( + X5 12 ) X8 )  ( <= ( + X8 24 ) X5 )  ( <= ( + Y5 100 ) Y8 )  ( <= ( + Y8 11 ) Y5 )  )
( or ( <= ( + X6 9 ) X7 )  ( <= ( + X7 50 ) X6 )  ( <= ( + Y6 33 ) Y7 )  ( <= ( + Y7 24 ) Y6 )  )
( or ( <= ( + X6 9 ) X8 )  ( <= ( + X8 24 ) X6 )  ( <= ( + Y6 33 ) Y8 )  ( <= ( + Y8 11 ) Y6 )  )
( or ( <= ( + X7 50 ) X8 )  ( <= ( + X8 24 ) X7 )  ( <= ( + Y7 24 ) Y8 )  ( <= ( + Y8 11 ) Y7 )  )
( >= X0 0)
( <= ( + X0 59) Z)
( >= Y0 0)
( <= ( + Y0 69 ) 100)
( >= X1 0)
( <= ( + X1 24) Z)
( >= Y1 0)
( <= ( + Y1 86 ) 100)
( >= X2 0)
( <= ( + X2 1) Z)
( >= Y2 0)
( <= ( + Y2 5 ) 100)
( >= X3 0)
( <= ( + X3 100) Z)
( >= Y3 0)
( <= ( + Y3 46 ) 100)
( >= X4 0)
( <= ( + X4 1) Z)
( >= Y4 0)
( <= ( + Y4 94 ) 100)
( >= X5 0)
( <= ( + X5 12) Z)
( >= Y5 0)
( <= ( + Y5 100 ) 100)
( >= X6 0)
( <= ( + X6 9) Z)
( >= Y6 0)
( <= ( + Y6 33 ) 100)
( >= X7 0)
( <= ( + X7 50) Z)
( >= Y7 0)
( <= ( + Y7 24 ) 100)
( >= X8 0)
( <= ( + X8 24) Z)
( >= Y8 0)
( <= ( + Y8 11 ) 100)
) )
)(=> $phi $goal))))